Instance Name : rc106
Date : 2022-07-21
Solution
Route 1 : 14 47 16 15 11 12 53
Route 2 : 82 99 86 87 9 13 10 17
Route 3 : 69 98 88 78 73 79 60 55
Route 4 : 2 45 5 8 7 6 46 4 3 1 100
Route 5 : 81 61 70 68
Route 6 : 42 44 39 38 36 40 35 37 43
Route 7 : 72 41 71 94 93 96 54
Route 8 : 92 67 33 30 32 89
Route 9 : 31 29 27 26 28 34 50 91 80
Route 10 : 95 62 63 85 76 51 84 56 66
Route 11 : 64 83 57 90
Route 12 : 23 21 18 19 49 20 22 48 25 24
Route 13 : 65 52 59 75 97 58 77 74
